benchmarks/bfuzz0/32392553425777178891413624035656632653.smt2
(set-logic QF_FP)
(declare-const x0 (_ FloatingPoint 11 53))
(declare-const x1 (_ FloatingPoint 11 53))
(declare-const x2 (_ FloatingPoint 11 53))
(declare-const x3 (_ FloatingPoint 11 53))
(declare-const x4 (_ FloatingPoint 11 53))
(declare-const x5 (_ FloatingPoint 11 53))
(declare-const x6 (_ FloatingPoint 11 53))
(declare-const x7 (_ FloatingPoint 11 53))
(declare-const x8 (_ FloatingPoint 11 53))
(declare-const x9 (_ FloatingPoint 11 53))
(assert (fp.lt (fp.mul RNE x5 x1) (fp.mul RNE x6 x1)))
(assert (fp.leq (fp.mul RNE x7 x5) (fp.sub RNE x9 x9)))
(assert (fp.gt (fp.mul RNE x8 x7) (fp.sub RNE x9 x6)))
(assert (fp.leq (fp.div RNE x1 x3) (fp.add RNE x3 x8)))
(assert (fp.geq (fp.mul RNE x1 x8) (fp.add RNE x0 x2)))
(assert (fp.leq (fp.neg x9) (fp.sub RNE x6 x9)))
(assert (fp.geq (fp.neg x9) (fp.neg x9)))
(assert (fp.eq (fp.mul RNE x7 x8) (fp.sub RNE x9 x2)))
(assert (fp.leq (fp.mul RNE x6 x0) (fp.neg x2)))
(assert (fp.geq (fp.neg x5) (fp.mul RNE x5 x3)))
(assert (fp.eq (fp.neg x2) (fp.neg x8)))
(assert (fp.geq (fp.add RNE x9 x9) (fp.add RNE x7 x7)))
(assert (fp.lt (fp.add RNE x3 x9) (fp.sub RNE x6 x5)))
(assert (fp.eq (fp.div RNE x8 x1) (fp.sub RNE x2 x1)))
(assert (fp.leq (fp.sub RNE x8 x5) (fp.sub RNE x6 x4)))
(assert (fp.lt (fp.div RNE x6 x8) (fp.div RNE x0 x4)))
(assert (fp.eq (fp.div RNE x1 x5) (fp.neg x8)))
(check-sat)
