db/data/32392553425777178891413624035656632653.z3.out
-------------------
2500.172773235
